32
0 0
3 19
39
21
3 0
15 7
40
22
15 0
20 9
38
20
20 0
24 18
36
19
3 7
13 13
35
19
24 0
27 22
37
19
3 13
13 17
32
18
3 17
13 23
30
17
13 9
20 20
33
18
27 0
32 16
34
18
13 20
24 28
29
17
27 16
30 31
31
17
0 23
9 27
27
15
0 27
6 38
22
12
6 27
11 39
23
12
30 16
32 42
26
14
24 22
27 49
18
10
11 28
21 32
28
16
21 28
24 56
25
13
27 31
30 45
24
12
11 32
19 46
20
11
19 32
21 47
21
11
0 38
3 64
19
10
3 39
11 44
17
10
3 46
12 54
15
9
12 47
21 53
16
9
3 54
17 62
14
8
24 49
30 58
13
7
30 42
32 74
12
6
17 53
21 78
11
5
21 58
25 80
9
4
25 58
28 79
10
4
3 62
14 67
8
4
0 67
7 73
5
3
7 67
15 81
3
2
28 58
30 74
7
3
15 62
17 81
4
2
0 73
5 88
2
1
25 79
31 83
6
3
5 81
19 89
0
1
19 83
30 88
1
1
